Set parameter LicenseID to value 2609176
Set parameter TimeLimit to value 1800
Gurobi Optimizer version 11.0.3 build v11.0.3rc0 (linux64 - "Debian GNU/Linux 12 (bookworm)")

CPU model: AMD EPYC 7B12, instruction set [SSE2|AVX|AVX2]
Thread count: 4 physical cores, 8 logical processors, using up to 8 threads

Optimize a model with 1106920 rows, 350464 columns and 228421864 nonzeros
Model fingerprint: 0x728f267f
Variable types: 0 continuous, 350464 integer (350464 binary)
Coefficient statistics:
  Matrix range     [1e+00, 1e+00]
  Objective range  [0e+00, 0e+00]
  Bounds range     [1e+00, 1e+00]
  RHS range        [1e+00, 1e+00]
Presolve removed 0 rows and 0 columns (presolve time = 5s) ...
Presolve removed 296 rows and 296 columns (presolve time = 13s) ...
Presolve removed 296 rows and 296 columns (presolve time = 16s) ...
Presolve removed 296 rows and 296 columns (presolve time = 21s) ...
Presolve removed 296 rows and 296 columns (presolve time = 28s) ...
Presolve removed 296 rows and 296 columns (presolve time = 32s) ...
Presolve removed 296 rows and 296 columns (presolve time = 35s) ...
Presolve removed 296 rows and 296 columns (presolve time = 40s) ...
Presolve removed 296 rows and 296 columns (presolve time = 45s) ...
Presolve removed 296 rows and 296 columns (presolve time = 55s) ...
Presolve removed 296 rows and 296 columns (presolve time = 60s) ...
Presolve removed 296 rows and 296 columns (presolve time = 65s) ...
Presolve removed 296 rows and 296 columns (presolve time = 70s) ...
Presolve removed 296 rows and 296 columns (presolve time = 75s) ...
Presolve removed 296 rows and 296 columns (presolve time = 80s) ...
Presolve removed 296 rows and 296 columns (presolve time = 85s) ...
Presolve removed 296 rows and 296 columns (presolve time = 90s) ...
Presolve removed 296 rows and 296 columns (presolve time = 95s) ...
Presolve removed 296 rows and 296 columns (presolve time = 100s) ...
Presolve removed 296 rows and 296 columns (presolve time = 105s) ...
Presolve removed 3012 rows and 296 columns (presolve time = 111s) ...
Presolve removed 3012 rows and 296 columns (presolve time = 116s) ...
Presolve removed 3012 rows and 296 columns (presolve time = 120s) ...
Presolve removed 3012 rows and 296 columns (presolve time = 129s) ...
Presolve removed 3012 rows and 296 columns (presolve time = 134s) ...
Presolve removed 3012 rows and 296 columns (presolve time = 135s) ...
Presolve removed 3012 rows and 296 columns (presolve time = 140s) ...
Presolve removed 3012 rows and 296 columns (presolve time = 145s) ...
Presolve removed 3012 rows and 296 columns (presolve time = 150s) ...
Presolve removed 3012 rows and 296 columns (presolve time = 159s) ...
Presolve removed 3012 rows and 296 columns (presolve time = 164s) ...
Presolve removed 3012 rows and 296 columns (presolve time = 165s) ...
Presolve removed 3012 rows and 296 columns (presolve time = 170s) ...
Presolve removed 3012 rows and 296 columns (presolve time = 179s) ...
Presolve removed 3012 rows and 296 columns (presolve time = 181s) ...
Presolve removed 3012 rows and 296 columns (presolve time = 186s) ...
Presolve removed 3012 rows and 296 columns (presolve time = 190s) ...
Presolve removed 3012 rows and 296 columns (presolve time = 195s) ...
Presolve removed 3012 rows and 296 columns (presolve time = 210s) ...
Presolve removed 3012 rows and 296 columns (presolve time = 217s) ...
Presolve removed 3012 rows and 296 columns (presolve time = 223s) ...
Presolve removed 3012 rows and 296 columns (presolve time = 225s) ...
Presolve removed 3012 rows and 296 columns (presolve time = 230s) ...
Presolve removed 3012 rows and 296 columns (presolve time = 235s) ...
Presolve removed 3012 rows and 296 columns (presolve time = 240s) ...
Presolve removed 3012 rows and 296 columns (presolve time = 245s) ...
Presolve removed 3012 rows and 296 columns (presolve time = 250s) ...
Presolve removed 3012 rows and 296 columns (presolve time = 258s) ...
Presolve removed 3012 rows and 296 columns (presolve time = 261s) ...
Presolve removed 3012 rows and 296 columns (presolve time = 266s) ...
Error: invalid user locale; possible fix is to set the system environment
       variable 'LC_ALL' to a valid locale (e.g., to 'C')
Presolve removed 3012 rows and 296 columns (presolve time = 270s) ...
Presolve removed 3012 rows and 296 columns (presolve time = 283s) ...
Presolve removed 3012 rows and 296 columns (presolve time = 292s) ...
Presolve removed 3012 rows and 296 columns
Presolve time: 291.72s
Presolved: 1103908 rows, 350168 columns, 227787938 nonzeros
Variable types: 0 continuous, 350168 integer (350168 binary)

Deterministic concurrent LP optimizer: primal simplex, dual simplex, and barrier
Showing barrier log only...

